MARKOV
384
2 2 2 2 2 2 2 2 2 2 2 2 2 2 2 2 2 2 2 2 2 2 2 2 2 2 2 2 2 2 2 2 2 2 2 2 2 2 2 2 2 2 2 2 2 2 2 2 2 2 2 2 2 2 2 2 2 2 2 2 2 2 2 2 2 2 2 2 2 2 2 2 2 2 2 2 2 2 2 2 2 2 2 2 2 2 2 2 2 2 2 2 2 2 2 2 2 2 2 2 2 2 2 2 2 2 2 2 2 2 2 2 2 2 2 2 2 2 2 2 2 2 2 2 2 2 2 2 2 2 2 2 2 2 2 2 2 2 2 2 2 2 2 2 2 2 2 2 2 2 2 2 2 2 2 2 2 2 2 2 2 2 2 2 2 2 2 2 2 2 2 2 2 2 2 2 2 2 2 2 2 2 2 2 2 2 2 2 2 2 2 2 2 2 2 2 2 2 2 2 2 2 2 2 2 2 2 2 2 2 2 2 2 2 2 2 2 2 2 2 2 2 2 2 2 2 2 2 2 2 2 2 2 2 2 2 2 2 2 2 2 2 2 2 2 2 2 2 2 2 2 2 2 2 2 2 2 2 2 2 2 2 2 2 2 2 2 2 2 2 2 2 2 2 2 2 2 2 2 2 2 2 2 2 2 2 2 2 2 2 2 2 2 2 2 2 2 2 2 2 2 2 2 2 2 2 2 2 2 2 2 2 2 2 2 2 2 2 2 2 2 2 2 2 2 2 2 2 2 2 2 2 2 2 2 2 2 2 2 2 2 2 2 2 2 2 2 2 2 2 2 2 2 2 2 2 2 2 2 2 2 2 2 2 2 2 2 2 2 2 2 2 2 2 2 2 2 2 2 2 2 2 2 2 
384
3 383 148 142 
3 382 46 383 
3 381 60 382 
3 380 169 381 
3 379 79 380 
3 378 27 379 
3 377 31 378 
3 376 190 377 
3 375 62 376 
3 374 181 375 
3 373 126 374 
3 372 104 373 
3 371 76 372 
3 370 24 371 
3 369 93 370 
3 368 85 369 
3 367 18 368 
3 366 143 367 
3 365 162 366 
3 364 175 365 
3 363 158 364 
3 362 134 363 
3 361 100 362 
3 360 174 361 
3 359 180 360 
3 358 165 359 
3 357 52 358 
3 356 171 357 
3 355 160 356 
3 354 65 355 
3 353 77 354 
3 352 68 353 
3 351 163 352 
3 350 59 351 
3 349 36 350 
3 348 10 349 
3 347 71 348 
3 346 98 347 
3 345 161 346 
3 344 72 345 
3 343 168 344 
3 342 136 343 
3 341 26 342 
3 340 49 341 
3 339 140 340 
3 338 74 339 
3 337 188 338 
3 336 57 337 
3 335 51 336 
3 334 152 335 
3 333 75 334 
3 332 32 333 
3 331 177 332 
3 330 94 331 
3 329 106 330 
3 328 172 329 
3 327 54 328 
3 326 55 327 
3 325 113 326 
3 324 50 325 
3 323 64 324 
3 322 7 323 
3 321 95 322 
3 320 43 321 
3 319 42 320 
3 318 182 319 
3 317 157 318 
3 316 153 317 
3 315 130 316 
3 314 15 315 
3 313 40 314 
3 312 2 313 
3 311 131 312 
3 310 38 311 
3 309 97 310 
3 308 105 309 
3 307 48 308 
3 306 61 307 
3 305 135 306 
3 304 13 305 
3 303 66 304 
3 302 111 303 
3 301 83 302 
3 300 91 301 
3 299 155 300 
3 298 173 299 
3 297 144 298 
3 296 145 297 
3 295 58 296 
3 294 6 295 
3 293 117 294 
3 292 45 293 
3 291 39 292 
3 290 118 291 
3 289 115 290 
3 288 84 289 
3 287 80 288 
3 286 179 287 
3 285 70 286 
3 284 151 285 
3 283 128 284 
3 282 88 283 
3 281 92 282 
3 280 73 281 
3 279 37 280 
3 278 0 279 
3 277 125 278 
3 276 178 277 
3 275 28 276 
3 274 44 275 
3 273 25 274 
3 272 129 273 
3 271 176 272 
3 270 5 271 
3 269 30 270 
3 268 150 269 
3 267 184 268 
3 266 20 267 
3 265 164 266 
3 264 35 265 
3 263 4 264 
3 262 183 263 
3 261 114 262 
3 260 120 261 
3 259 63 260 
3 258 109 259 
3 257 141 258 
3 256 86 257 
3 255 166 256 
3 254 139 255 
3 253 170 254 
3 252 11 253 
3 251 47 252 
3 250 82 251 
3 249 185 250 
3 248 121 249 
3 247 22 248 
3 246 89 247 
3 245 156 246 
3 244 67 245 
3 243 107 244 
3 242 138 243 
3 241 127 242 
3 240 102 241 
3 239 99 240 
3 238 112 239 
3 237 87 238 
3 236 53 237 
3 235 186 236 
3 234 137 235 
3 233 167 234 
3 232 23 233 
3 231 147 232 
3 230 78 231 
3 229 159 230 
3 228 90 229 
3 227 110 228 
3 226 192 227 
3 225 146 226 
3 224 1 225 
3 223 16 224 
3 222 21 223 
3 221 19 222 
3 220 69 221 
3 219 133 220 
3 218 108 219 
3 217 132 218 
3 216 12 217 
3 215 124 216 
3 214 187 215 
3 213 154 214 
3 212 14 213 
3 211 122 212 
3 210 119 211 
3 209 101 210 
3 208 81 209 
3 207 189 208 
3 206 96 207 
3 205 56 206 
3 204 33 205 
3 203 29 204 
3 202 149 203 
3 201 9 202 
3 200 8 201 
3 199 3 200 
3 198 34 199 
3 197 17 198 
3 196 116 197 
3 195 123 196 
3 194 41 195 
3 193 103 194 
2 191 193 
1 142 
1 148 
1 46 
1 60 
1 169 
1 79 
1 27 
1 31 
1 190 
1 62 
1 181 
1 104 
1 126 
1 76 
1 24 
1 85 
1 93 
1 18 
1 162 
1 143 
1 175 
1 158 
1 134 
1 100 
1 174 
1 180 
1 165 
1 52 
1 171 
1 160 
1 65 
1 77 
1 68 
1 163 
1 59 
1 36 
1 10 
1 71 
1 98 
1 161 
1 72 
1 168 
1 136 
1 26 
1 49 
1 140 
1 74 
1 188 
1 57 
1 51 
1 75 
1 152 
1 32 
1 177 
1 94 
1 172 
1 106 
1 55 
1 54 
1 113 
1 64 
1 50 
1 7 
1 95 
1 42 
1 43 
1 182 
1 157 
1 153 
1 130 
1 15 
1 2 
1 40 
1 131 
1 38 
1 105 
1 97 
1 61 
1 48 
1 135 
1 66 
1 13 
1 111 
1 155 
1 91 
1 83 
1 173 
1 58 
1 145 
1 144 
1 6 
1 45 
1 117 
1 39 
1 118 
1 115 
1 84 
1 80 
1 179 
1 70 
1 151 
1 128 
1 88 
1 92 
1 73 
1 37 
1 0 
1 125 
1 178 
1 28 
1 44 
1 25 
1 129 
1 176 
1 5 
1 30 
1 150 
1 184 
1 20 
1 164 
1 35 
1 4 
1 183 
1 114 
1 120 
1 63 
1 109 
1 141 
1 86 
1 166 
1 139 
1 170 
1 11 
1 47 
1 82 
1 185 
1 121 
1 22 
1 89 
1 156 
1 67 
1 107 
1 138 
1 127 
1 102 
1 99 
1 112 
1 87 
1 53 
1 186 
1 137 
1 167 
1 23 
1 147 
1 78 
1 159 
1 90 
1 110 
1 192 
1 146 
1 1 
1 16 
1 21 
1 19 
1 69 
1 133 
1 108 
1 132 
1 12 
1 124 
1 187 
1 154 
1 14 
1 122 
1 119 
1 101 
1 81 
1 189 
1 96 
1 56 
1 33 
1 29 
1 149 
1 9 
1 8 
1 3 
1 34 
1 17 
1 116 
1 123 
1 41 
1 103 

8
1.00000000000000 0.90000000000000 0.00000000000000 0.00000000000000 0.00000000000000 0.10000000000000 1.00000000000000 1.00000000000000 
8
1.00000000000000 0.00000000000000 0.20000000000000 0.00000000000000 0.00000000000000 1.00000000000000 0.80000000000000 1.00000000000000 
8
1.00000000000000 0.00000000000000 0.40000000000000 0.00000000000000 0.00000000000000 1.00000000000000 0.60000000000000 1.00000000000000 
8
1.00000000000000 0.00000000000000 0.50000000000000 0.00000000000000 0.00000000000000 1.00000000000000 0.50000000000000 1.00000000000000 
8
1.00000000000000 0.00000000000000 0.00000000000000 0.00000000000000 0.00000000000000 1.00000000000000 1.00000000000000 1.00000000000000 
8
1.00000000000000 0.00000000000000 0.90000000000000 0.00000000000000 0.00000000000000 1.00000000000000 0.10000000000000 1.00000000000000 
8
1.00000000000000 0.00000000000000 0.50000000000000 0.00000000000000 0.00000000000000 1.00000000000000 0.50000000000000 1.00000000000000 
8
1.00000000000000 0.00000000000000 0.89000000000000 0.00000000000000 0.00000000000000 1.00000000000000 0.11000000000000 1.00000000000000 
8
1.00000000000000 0.00000000000000 0.50000000000000 0.00000000000000 0.00000000000000 1.00000000000000 0.50000000000000 1.00000000000000 
8
1.00000000000000 0.00000000000000 0.00000000000000 0.00000000000000 0.00000000000000 1.00000000000000 1.00000000000000 1.00000000000000 
8
1.00000000000000 0.00000000000000 0.89000000000000 0.00000000000000 0.00000000000000 1.00000000000000 0.11000000000000 1.00000000000000 
8
1.00000000000000 0.00000000000000 0.50000000000000 0.00000000000000 0.00000000000000 1.00000000000000 0.50000000000000 1.00000000000000 
8
1.00000000000000 0.00000000000000 0.20000000000000 0.00000000000000 0.00000000000000 1.00000000000000 0.80000000000000 1.00000000000000 
8
1.00000000000000 0.00000000000000 0.40000000000000 0.00000000000000 0.00000000000000 1.00000000000000 0.60000000000000 1.00000000000000 
8
1.00000000000000 0.00000000000000 0.10000000000000 0.00000000000000 0.00000000000000 1.00000000000000 0.90000000000000 1.00000000000000 
8
1.00000000000000 0.00000000000000 0.50000000000000 0.00000000000000 0.00000000000000 1.00000000000000 0.50000000000000 1.00000000000000 
8
1.00000000000000 0.00000000000000 0.50000000000000 0.00000000000000 0.00000000000000 1.00000000000000 0.50000000000000 1.00000000000000 
8
1.00000000000000 0.00000000000000 0.10000000000000 0.00000000000000 0.00000000000000 1.00000000000000 0.90000000000000 1.00000000000000 
8
1.00000000000000 0.00000000000000 0.00000000000000 0.00000000000000 0.00000000000000 1.00000000000000 1.00000000000000 1.00000000000000 
8
1.00000000000000 0.00000000000000 0.50000000000000 0.00000000000000 0.00000000000000 1.00000000000000 0.50000000000000 1.00000000000000 
8
1.00000000000000 0.00000000000000 0.01000000000000 0.00000000000000 0.00000000000000 1.00000000000000 0.99000000000000 1.00000000000000 
8
1.00000000000000 0.00000000000000 0.00000000000000 0.00000000000000 0.00000000000000 1.00000000000000 1.00000000000000 1.00000000000000 
8
1.00000000000000 0.00000000000000 0.00000000000000 0.00000000000000 0.00000000000000 1.00000000000000 1.00000000000000 1.00000000000000 
8
1.00000000000000 0.00000000000000 0.00000000000000 0.00000000000000 0.00000000000000 1.00000000000000 1.00000000000000 1.00000000000000 
8
1.00000000000000 0.00000000000000 0.00000000000000 0.00000000000000 0.00000000000000 1.00000000000000 1.00000000000000 1.00000000000000 
8
1.00000000000000 0.00000000000000 0.50000000000000 0.00000000000000 0.00000000000000 1.00000000000000 0.50000000000000 1.00000000000000 
8
1.00000000000000 0.00000000000000 0.90000000000000 0.00000000000000 0.00000000000000 1.00000000000000 0.10000000000000 1.00000000000000 
8
1.00000000000000 0.00000000000000 0.50000000000000 0.00000000000000 0.00000000000000 1.00000000000000 0.50000000000000 1.00000000000000 
8
1.00000000000000 0.00000000000000 0.00000000000000 0.00000000000000 0.00000000000000 1.00000000000000 1.00000000000000 1.00000000000000 
8
1.00000000000000 0.00000000000000 0.50000000000000 0.00000000000000 0.00000000000000 1.00000000000000 0.50000000000000 1.00000000000000 
8
1.00000000000000 0.00000000000000 0.90000000000000 0.00000000000000 0.00000000000000 1.00000000000000 0.10000000000000 1.00000000000000 
8
1.00000000000000 0.00000000000000 0.50000000000000 0.00000000000000 0.00000000000000 1.00000000000000 0.50000000000000 1.00000000000000 
8
1.00000000000000 0.00000000000000 0.10000000000000 0.00000000000000 0.00000000000000 1.00000000000000 0.90000000000000 1.00000000000000 
8
1.00000000000000 0.00000000000000 0.00000000000000 0.00000000000000 0.00000000000000 1.00000000000000 1.00000000000000 1.00000000000000 
8
1.00000000000000 0.00000000000000 0.10000000000000 0.00000000000000 0.00000000000000 1.00000000000000 0.90000000000000 1.00000000000000 
8
1.00000000000000 0.00000000000000 0.50000000000000 0.00000000000000 0.00000000000000 1.00000000000000 0.50000000000000 1.00000000000000 
8
1.00000000000000 0.00000000000000 0.90000000000000 0.00000000000000 0.00000000000000 1.00000000000000 0.10000000000000 1.00000000000000 
8
1.00000000000000 0.00000000000000 0.50000000000000 0.00000000000000 0.00000000000000 1.00000000000000 0.50000000000000 1.00000000000000 
8
1.00000000000000 0.00000000000000 0.50000000000000 0.00000000000000 0.00000000000000 1.00000000000000 0.50000000000000 1.00000000000000 
8
1.00000000000000 0.00000000000000 0.90000000000000 0.00000000000000 0.00000000000000 1.00000000000000 0.10000000000000 1.00000000000000 
8
1.00000000000000 0.00000000000000 0.09000000000000 0.00000000000000 0.00000000000000 1.00000000000000 0.91000000000000 1.00000000000000 
8
1.00000000000000 0.00000000000000 0.50000000000000 0.00000000000000 0.00000000000000 1.00000000000000 0.50000000000000 1.00000000000000 
8
1.00000000000000 0.00000000000000 0.10000000000000 0.00000000000000 0.00000000000000 1.00000000000000 0.90000000000000 1.00000000000000 
8
1.00000000000000 0.00000000000000 0.50000000000000 0.00000000000000 0.00000000000000 1.00000000000000 0.50000000000000 1.00000000000000 
8
1.00000000000000 0.00000000000000 0.50000000000000 0.00000000000000 0.00000000000000 1.00000000000000 0.50000000000000 1.00000000000000 
8
1.00000000000000 0.00000000000000 0.90000000000000 0.00000000000000 0.00000000000000 1.00000000000000 0.10000000000000 1.00000000000000 
8
1.00000000000000 0.00000000000000 0.09000000000000 0.00000000000000 0.00000000000000 1.00000000000000 0.91000000000000 1.00000000000000 
8
1.00000000000000 0.00000000000000 0.50000000000000 0.00000000000000 0.00000000000000 1.00000000000000 0.50000000000000 1.00000000000000 
8
1.00000000000000 0.00000000000000 0.50000000000000 0.00000000000000 0.00000000000000 1.00000000000000 0.50000000000000 1.00000000000000 
8
1.00000000000000 0.00000000000000 0.00000000000000 0.00000000000000 0.00000000000000 1.00000000000000 1.00000000000000 1.00000000000000 
8
1.00000000000000 0.00000000000000 0.00000000000000 0.00000000000000 0.00000000000000 1.00000000000000 1.00000000000000 1.00000000000000 
8
1.00000000000000 0.00000000000000 0.50000000000000 0.00000000000000 0.00000000000000 1.00000000000000 0.50000000000000 1.00000000000000 
8
1.00000000000000 0.00000000000000 0.00000000000000 0.00000000000000 0.00000000000000 1.00000000000000 1.00000000000000 1.00000000000000 
8
1.00000000000000 0.00000000000000 0.00000000000000 0.00000000000000 0.00000000000000 1.00000000000000 1.00000000000000 1.00000000000000 
8
1.00000000000000 0.00000000000000 0.50000000000000 0.00000000000000 0.00000000000000 1.00000000000000 0.50000000000000 1.00000000000000 
8
1.00000000000000 0.00000000000000 0.10000000000000 0.00000000000000 0.00000000000000 1.00000000000000 0.90000000000000 1.00000000000000 
8
1.00000000000000 0.00000000000000 0.50000000000000 0.00000000000000 0.00000000000000 1.00000000000000 0.50000000000000 1.00000000000000 
8
1.00000000000000 0.00000000000000 0.57000000000000 0.00000000000000 0.00000000000000 1.00000000000000 0.43000000000000 1.00000000000000 
8
1.00000000000000 0.00000000000000 0.00000000000000 0.00000000000000 0.00000000000000 1.00000000000000 1.00000000000000 1.00000000000000 
8
1.00000000000000 0.00000000000000 0.00000000000000 0.00000000000000 0.00000000000000 1.00000000000000 1.00000000000000 1.00000000000000 
8
1.00000000000000 0.00000000000000 0.00000000000000 0.00000000000000 0.00000000000000 1.00000000000000 1.00000000000000 1.00000000000000 
8
1.00000000000000 0.00000000000000 0.50000000000000 0.00000000000000 0.00000000000000 1.00000000000000 0.50000000000000 1.00000000000000 
8
1.00000000000000 0.00000000000000 0.50000000000000 0.00000000000000 0.00000000000000 1.00000000000000 0.50000000000000 1.00000000000000 
8
1.00000000000000 0.00000000000000 0.90000000000000 0.00000000000000 0.00000000000000 1.00000000000000 0.10000000000000 1.00000000000000 
8
1.00000000000000 0.00000000000000 0.00000000000000 0.00000000000000 0.00000000000000 1.00000000000000 1.00000000000000 1.00000000000000 
8
1.00000000000000 0.00000000000000 0.50000000000000 0.00000000000000 0.00000000000000 1.00000000000000 0.50000000000000 1.00000000000000 
8
1.00000000000000 0.00000000000000 0.10000000000000 0.00000000000000 0.00000000000000 1.00000000000000 0.90000000000000 1.00000000000000 
8
1.00000000000000 0.00000000000000 0.50000000000000 0.00000000000000 0.00000000000000 1.00000000000000 0.50000000000000 1.00000000000000 
8
1.00000000000000 0.00000000000000 0.10000000000000 0.00000000000000 0.00000000000000 1.00000000000000 0.90000000000000 1.00000000000000 
8
1.00000000000000 0.00000000000000 0.50000000000000 0.00000000000000 0.00000000000000 1.00000000000000 0.50000000000000 1.00000000000000 
8
1.00000000000000 0.00000000000000 0.40000000000000 0.00000000000000 0.00000000000000 1.00000000000000 0.60000000000000 1.00000000000000 
8
1.00000000000000 0.00000000000000 0.50000000000000 0.00000000000000 0.00000000000000 1.00000000000000 0.50000000000000 1.00000000000000 
8
1.00000000000000 0.00000000000000 0.00000000000000 0.00000000000000 0.00000000000000 1.00000000000000 1.00000000000000 1.00000000000000 
8
1.00000000000000 0.00000000000000 0.50000000000000 0.00000000000000 0.00000000000000 1.00000000000000 0.50000000000000 1.00000000000000 
8
1.00000000000000 0.00000000000000 0.90000000000000 0.00000000000000 0.00000000000000 1.00000000000000 0.10000000000000 1.00000000000000 
8
1.00000000000000 0.00000000000000 0.00000000000000 0.00000000000000 0.00000000000000 1.00000000000000 1.00000000000000 1.00000000000000 
8
1.00000000000000 0.00000000000000 0.50000000000000 0.00000000000000 0.00000000000000 1.00000000000000 0.50000000000000 1.00000000000000 
8
1.00000000000000 0.00000000000000 0.00000000000000 0.00000000000000 0.00000000000000 1.00000000000000 1.00000000000000 1.00000000000000 
8
1.00000000000000 0.00000000000000 0.89000000000000 0.00000000000000 0.00000000000000 1.00000000000000 0.11000000000000 1.00000000000000 
8
1.00000000000000 0.00000000000000 0.50000000000000 0.00000000000000 0.00000000000000 1.00000000000000 0.50000000000000 1.00000000000000 
8
1.00000000000000 0.00000000000000 0.50000000000000 0.00000000000000 0.00000000000000 1.00000000000000 0.50000000000000 1.00000000000000 
8
1.00000000000000 0.00000000000000 0.00000000000000 0.00000000000000 0.00000000000000 1.00000000000000 1.00000000000000 1.00000000000000 
8
1.00000000000000 0.00000000000000 0.50000000000000 0.00000000000000 0.00000000000000 1.00000000000000 0.50000000000000 1.00000000000000 
8
1.00000000000000 0.00000000000000 0.00000000000000 0.00000000000000 0.00000000000000 1.00000000000000 1.00000000000000 1.00000000000000 
8
1.00000000000000 0.00000000000000 0.40000000000000 0.00000000000000 0.00000000000000 1.00000000000000 0.60000000000000 1.00000000000000 
8
1.00000000000000 0.00000000000000 0.50000000000000 0.00000000000000 0.00000000000000 1.00000000000000 0.50000000000000 1.00000000000000 
8
1.00000000000000 0.00000000000000 0.00000000000000 0.00000000000000 0.00000000000000 1.00000000000000 1.00000000000000 1.00000000000000 
8
1.00000000000000 0.00000000000000 0.00000000000000 0.00000000000000 0.00000000000000 1.00000000000000 1.00000000000000 1.00000000000000 
8
1.00000000000000 0.00000000000000 0.10000000000000 0.00000000000000 0.00000000000000 1.00000000000000 0.90000000000000 1.00000000000000 
8
1.00000000000000 0.00000000000000 0.60000000000000 0.00000000000000 0.00000000000000 1.00000000000000 0.40000000000000 1.00000000000000 
8
1.00000000000000 0.00000000000000 0.50000000000000 0.00000000000000 0.00000000000000 1.00000000000000 0.50000000000000 1.00000000000000 
8
1.00000000000000 0.00000000000000 0.10000000000000 0.00000000000000 0.00000000000000 1.00000000000000 0.90000000000000 1.00000000000000 
8
1.00000000000000 0.00000000000000 0.40000000000000 0.00000000000000 0.00000000000000 1.00000000000000 0.60000000000000 1.00000000000000 
8
1.00000000000000 0.00000000000000 0.00000000000000 0.00000000000000 0.00000000000000 1.00000000000000 1.00000000000000 1.00000000000000 
8
1.00000000000000 0.00000000000000 0.50000000000000 0.00000000000000 0.00000000000000 1.00000000000000 0.50000000000000 1.00000000000000 
8
1.00000000000000 0.00000000000000 0.00000000000000 0.00000000000000 0.00000000000000 1.00000000000000 1.00000000000000 1.00000000000000 
8
1.00000000000000 0.00000000000000 0.00000000000000 0.00000000000000 0.00000000000000 1.00000000000000 1.00000000000000 1.00000000000000 
8
1.00000000000000 0.00000000000000 0.10000000000000 0.00000000000000 0.00000000000000 1.00000000000000 0.90000000000000 1.00000000000000 
8
1.00000000000000 0.00000000000000 0.59000000000000 0.00000000000000 0.00000000000000 1.00000000000000 0.41000000000000 1.00000000000000 
8
1.00000000000000 0.00000000000000 0.00000000000000 0.00000000000000 0.00000000000000 1.00000000000000 1.00000000000000 1.00000000000000 
8
1.00000000000000 0.00000000000000 0.40000000000000 0.00000000000000 0.00000000000000 1.00000000000000 0.60000000000000 1.00000000000000 
8
1.00000000000000 0.00000000000000 0.00000000000000 0.00000000000000 0.00000000000000 1.00000000000000 1.00000000000000 1.00000000000000 
8
1.00000000000000 0.00000000000000 0.50000000000000 0.00000000000000 0.00000000000000 1.00000000000000 0.50000000000000 1.00000000000000 
8
1.00000000000000 0.00000000000000 0.90000000000000 0.00000000000000 0.00000000000000 1.00000000000000 0.10000000000000 1.00000000000000 
8
1.00000000000000 0.00000000000000 0.50000000000000 0.00000000000000 0.00000000000000 1.00000000000000 0.50000000000000 1.00000000000000 
8
1.00000000000000 0.00000000000000 0.00000000000000 0.00000000000000 0.00000000000000 1.00000000000000 1.00000000000000 1.00000000000000 
8
1.00000000000000 0.00000000000000 0.00000000000000 0.00000000000000 0.00000000000000 1.00000000000000 1.00000000000000 1.00000000000000 
8
1.00000000000000 0.00000000000000 0.90000000000000 0.00000000000000 0.00000000000000 1.00000000000000 0.10000000000000 1.00000000000000 
8
1.00000000000000 0.00000000000000 0.60000000000000 0.00000000000000 0.00000000000000 1.00000000000000 0.40000000000000 1.00000000000000 
8
1.00000000000000 0.00000000000000 0.40000000000000 0.00000000000000 0.00000000000000 1.00000000000000 0.60000000000000 1.00000000000000 
8
1.00000000000000 0.00000000000000 0.50000000000000 0.00000000000000 0.00000000000000 1.00000000000000 0.50000000000000 1.00000000000000 
8
1.00000000000000 0.00000000000000 0.10000000000000 0.00000000000000 0.00000000000000 1.00000000000000 0.90000000000000 1.00000000000000 
8
1.00000000000000 0.00000000000000 0.40000000000000 0.00000000000000 0.00000000000000 1.00000000000000 0.60000000000000 1.00000000000000 
8
1.00000000000000 0.00000000000000 0.00000000000000 0.00000000000000 0.00000000000000 1.00000000000000 1.00000000000000 1.00000000000000 
8
1.00000000000000 0.00000000000000 0.00000000000000 0.00000000000000 0.00000000000000 1.00000000000000 1.00000000000000 1.00000000000000 
8
1.00000000000000 0.00000000000000 0.50000000000000 0.00000000000000 0.00000000000000 1.00000000000000 0.50000000000000 1.00000000000000 
8
1.00000000000000 0.00000000000000 0.09000000000000 0.00000000000000 0.00000000000000 1.00000000000000 0.91000000000000 1.00000000000000 
8
1.00000000000000 0.00000000000000 0.00000000000000 0.00000000000000 0.00000000000000 1.00000000000000 1.00000000000000 1.00000000000000 
8
1.00000000000000 0.00000000000000 0.00000000000000 0.00000000000000 0.00000000000000 1.00000000000000 1.00000000000000 1.00000000000000 
8
1.00000000000000 0.00000000000000 0.50000000000000 0.00000000000000 0.00000000000000 1.00000000000000 0.50000000000000 1.00000000000000 
8
1.00000000000000 0.00000000000000 0.00000000000000 0.00000000000000 0.00000000000000 1.00000000000000 1.00000000000000 1.00000000000000 
8
1.00000000000000 0.00000000000000 0.00000000000000 0.00000000000000 0.00000000000000 1.00000000000000 1.00000000000000 1.00000000000000 
8
1.00000000000000 0.00000000000000 0.89000000000000 0.00000000000000 0.00000000000000 1.00000000000000 0.11000000000000 1.00000000000000 
8
1.00000000000000 0.00000000000000 0.00000000000000 0.00000000000000 0.00000000000000 1.00000000000000 1.00000000000000 1.00000000000000 
8
1.00000000000000 0.00000000000000 0.00000000000000 0.00000000000000 0.00000000000000 1.00000000000000 1.00000000000000 1.00000000000000 
8
1.00000000000000 0.00000000000000 0.00000000000000 0.00000000000000 0.00000000000000 1.00000000000000 1.00000000000000 1.00000000000000 
8
1.00000000000000 0.00000000000000 0.50000000000000 0.00000000000000 0.00000000000000 1.00000000000000 0.50000000000000 1.00000000000000 
8
1.00000000000000 0.00000000000000 0.50000000000000 0.00000000000000 0.00000000000000 1.00000000000000 0.50000000000000 1.00000000000000 
8
1.00000000000000 0.00000000000000 0.50000000000000 0.00000000000000 0.00000000000000 1.00000000000000 0.50000000000000 1.00000000000000 
8
1.00000000000000 0.00000000000000 0.50000000000000 0.00000000000000 0.00000000000000 1.00000000000000 0.50000000000000 1.00000000000000 
8
1.00000000000000 0.00000000000000 0.50000000000000 0.00000000000000 0.00000000000000 1.00000000000000 0.50000000000000 1.00000000000000 
8
1.00000000000000 0.00000000000000 0.00000000000000 0.00000000000000 0.00000000000000 1.00000000000000 1.00000000000000 1.00000000000000 
8
1.00000000000000 0.00000000000000 0.50000000000000 0.00000000000000 0.00000000000000 1.00000000000000 0.50000000000000 1.00000000000000 
8
1.00000000000000 0.00000000000000 0.40000000000000 0.00000000000000 0.00000000000000 1.00000000000000 0.60000000000000 1.00000000000000 
8
1.00000000000000 0.00000000000000 0.70000000000000 0.00000000000000 0.00000000000000 1.00000000000000 0.30000000000000 1.00000000000000 
8
1.00000000000000 0.00000000000000 0.50000000000000 0.00000000000000 0.00000000000000 1.00000000000000 0.50000000000000 1.00000000000000 
8
1.00000000000000 0.00000000000000 0.89000000000000 0.00000000000000 0.00000000000000 1.00000000000000 0.11000000000000 1.00000000000000 
8
1.00000000000000 0.00000000000000 0.50000000000000 0.00000000000000 0.00000000000000 1.00000000000000 0.50000000000000 1.00000000000000 
8
1.00000000000000 0.00000000000000 0.90000000000000 0.00000000000000 0.00000000000000 1.00000000000000 0.10000000000000 1.00000000000000 
8
1.00000000000000 0.00000000000000 0.00000000000000 0.00000000000000 0.00000000000000 1.00000000000000 1.00000000000000 1.00000000000000 
8
1.00000000000000 0.00000000000000 0.90000000000000 0.00000000000000 0.00000000000000 1.00000000000000 0.10000000000000 1.00000000000000 
8
1.00000000000000 0.00000000000000 0.50000000000000 0.00000000000000 0.00000000000000 1.00000000000000 0.50000000000000 1.00000000000000 
8
1.00000000000000 0.00000000000000 0.50000000000000 0.00000000000000 0.00000000000000 1.00000000000000 0.50000000000000 1.00000000000000 
8
1.00000000000000 0.00000000000000 0.00000000000000 0.00000000000000 0.00000000000000 1.00000000000000 1.00000000000000 1.00000000000000 
8
1.00000000000000 0.00000000000000 0.75000000000000 0.00000000000000 0.00000000000000 1.00000000000000 0.25000000000000 1.00000000000000 
8
1.00000000000000 0.00000000000000 0.00000000000000 0.00000000000000 0.00000000000000 1.00000000000000 1.00000000000000 1.00000000000000 
8
1.00000000000000 0.00000000000000 0.09000000000000 0.00000000000000 0.00000000000000 1.00000000000000 0.91000000000000 1.00000000000000 
8
1.00000000000000 0.00000000000000 0.50000000000000 0.00000000000000 0.00000000000000 1.00000000000000 0.50000000000000 1.00000000000000 
8
1.00000000000000 0.00000000000000 0.00000000000000 0.00000000000000 0.00000000000000 1.00000000000000 1.00000000000000 1.00000000000000 
8
1.00000000000000 0.00000000000000 0.50000000000000 0.00000000000000 0.00000000000000 1.00000000000000 0.50000000000000 1.00000000000000 
8
1.00000000000000 0.00000000000000 0.00000000000000 0.00000000000000 0.00000000000000 1.00000000000000 1.00000000000000 1.00000000000000 
8
1.00000000000000 0.00000000000000 0.00000000000000 0.00000000000000 0.00000000000000 1.00000000000000 1.00000000000000 1.00000000000000 
8
1.00000000000000 0.00000000000000 0.90000000000000 0.00000000000000 0.00000000000000 1.00000000000000 0.10000000000000 1.00000000000000 
8
1.00000000000000 0.00000000000000 0.70000000000000 0.00000000000000 0.00000000000000 1.00000000000000 0.30000000000000 1.00000000000000 
8
1.00000000000000 0.00000000000000 0.40000000000000 0.00000000000000 0.00000000000000 1.00000000000000 0.60000000000000 1.00000000000000 
8
1.00000000000000 0.00000000000000 0.10000000000000 0.00000000000000 0.00000000000000 1.00000000000000 0.90000000000000 1.00000000000000 
8
1.00000000000000 0.00000000000000 0.00000000000000 0.00000000000000 0.00000000000000 1.00000000000000 1.00000000000000 1.00000000000000 
8
1.00000000000000 0.00000000000000 0.60000000000000 0.00000000000000 0.00000000000000 1.00000000000000 0.40000000000000 1.00000000000000 
8
1.00000000000000 0.00000000000000 0.50000000000000 0.00000000000000 0.00000000000000 1.00000000000000 0.50000000000000 1.00000000000000 
8
1.00000000000000 0.00000000000000 0.40000000000000 0.00000000000000 0.00000000000000 1.00000000000000 0.60000000000000 1.00000000000000 
8
1.00000000000000 0.00000000000000 0.90000000000000 0.00000000000000 0.00000000000000 1.00000000000000 0.10000000000000 1.00000000000000 
8
1.00000000000000 0.00000000000000 0.50000000000000 0.00000000000000 0.00000000000000 1.00000000000000 0.50000000000000 1.00000000000000 
8
1.00000000000000 0.00000000000000 0.90000000000000 0.00000000000000 0.00000000000000 1.00000000000000 0.10000000000000 1.00000000000000 
8
1.00000000000000 0.00000000000000 0.00000000000000 0.00000000000000 0.00000000000000 1.00000000000000 1.00000000000000 1.00000000000000 
8
1.00000000000000 0.00000000000000 0.00000000000000 0.00000000000000 0.00000000000000 1.00000000000000 1.00000000000000 1.00000000000000 
8
1.00000000000000 0.00000000000000 0.00000000000000 0.00000000000000 0.00000000000000 1.00000000000000 1.00000000000000 1.00000000000000 
8
1.00000000000000 0.00000000000000 0.00000000000000 0.00000000000000 0.00000000000000 1.00000000000000 1.00000000000000 1.00000000000000 
8
1.00000000000000 0.00000000000000 0.09000000000000 0.00000000000000 0.00000000000000 1.00000000000000 0.91000000000000 1.00000000000000 
8
1.00000000000000 0.00000000000000 0.00000000000000 0.00000000000000 0.00000000000000 1.00000000000000 1.00000000000000 1.00000000000000 
8
1.00000000000000 0.00000000000000 0.90000000000000 0.00000000000000 0.00000000000000 1.00000000000000 0.10000000000000 1.00000000000000 
8
1.00000000000000 0.00000000000000 0.50000000000000 0.00000000000000 0.00000000000000 1.00000000000000 0.50000000000000 1.00000000000000 
8
1.00000000000000 0.00000000000000 0.00000000000000 0.00000000000000 0.00000000000000 1.00000000000000 1.00000000000000 1.00000000000000 
8
1.00000000000000 0.00000000000000 0.00000000000000 0.00000000000000 0.00000000000000 1.00000000000000 1.00000000000000 1.00000000000000 
8
1.00000000000000 0.00000000000000 0.00000000000000 0.00000000000000 0.00000000000000 1.00000000000000 1.00000000000000 1.00000000000000 
8
1.00000000000000 0.00000000000000 0.90000000000000 0.00000000000000 0.00000000000000 1.00000000000000 0.10000000000000 1.00000000000000 
8
1.00000000000000 0.00000000000000 0.00000000000000 0.00000000000000 0.00000000000000 1.00000000000000 1.00000000000000 1.00000000000000 
8
1.00000000000000 0.00000000000000 0.90000000000000 0.00000000000000 0.00000000000000 1.00000000000000 0.10000000000000 1.00000000000000 
8
1.00000000000000 0.00000000000000 0.00000000000000 0.00000000000000 0.00000000000000 1.00000000000000 1.00000000000000 1.00000000000000 
8
1.00000000000000 0.00000000000000 0.05000000000000 0.00000000000000 0.00000000000000 1.00000000000000 0.95000000000000 1.00000000000000 
8
1.00000000000000 0.00000000000000 0.50000000000000 0.00000000000000 0.00000000000000 1.00000000000000 0.50000000000000 1.00000000000000 
8
1.00000000000000 0.00000000000000 0.50000000000000 0.00000000000000 0.00000000000000 1.00000000000000 0.50000000000000 1.00000000000000 
8
1.00000000000000 0.00000000000000 0.00000000000000 0.00000000000000 0.00000000000000 1.00000000000000 1.00000000000000 1.00000000000000 
8
1.00000000000000 0.00000000000000 0.50000000000000 0.00000000000000 0.00000000000000 1.00000000000000 0.50000000000000 1.00000000000000 
8
1.00000000000000 0.00000000000000 0.00000000000000 0.00000000000000 0.00000000000000 1.00000000000000 1.00000000000000 1.00000000000000 
8
1.00000000000000 0.00000000000000 0.10000000000000 0.00000000000000 0.00000000000000 1.00000000000000 0.90000000000000 1.00000000000000 
8
1.00000000000000 0.00000000000000 0.00000000000000 0.00000000000000 0.00000000000000 1.00000000000000 1.00000000000000 1.00000000000000 
8
1.00000000000000 0.00000000000000 0.50000000000000 0.00000000000000 0.00000000000000 1.00000000000000 0.50000000000000 1.00000000000000 
8
1.00000000000000 0.00000000000000 0.00000000000000 0.00000000000000 0.00000000000000 1.00000000000000 1.00000000000000 1.00000000000000 
8
1.00000000000000 0.00000000000000 0.00000000000000 0.00000000000000 0.00000000000000 1.00000000000000 1.00000000000000 1.00000000000000 
8
1.00000000000000 0.00000000000000 0.90000000000000 0.00000000000000 0.00000000000000 1.00000000000000 0.10000000000000 1.00000000000000 
8
1.00000000000000 0.00000000000000 0.01000000000000 0.00000000000000 0.00000000000000 1.00000000000000 0.99000000000000 1.00000000000000 
4
0.97000000000000 0.00000000000000 0.03000000000000 1.00000000000000 
2
0.99950000000000 0.00050000000000 
2
0.99995000000000 0.00005000000000 
2
0.99999000000000 0.00001000000000 
2
0.99990000000000 0.00010000000000 
2
0.99999000000000 0.00001000000000 
2
0.99900000000000 0.00100000000000 
2
0.99975000000000 0.00025000000000 
2
0.99999000000000 0.00001000000000 
2
0.99995000000000 0.00005000000000 
2
0.99999000000000 0.00001000000000 
2
0.99990000000000 0.00010000000000 
2
0.99975000000000 0.00025000000000 
2
0.99990000000000 0.00010000000000 
2
0.99995000000000 0.00005000000000 
2
0.99990000000000 0.00010000000000 
2
0.99989000000000 0.00011000000000 
2
0.99999900000000 0.00000100000000 
2
0.99990000000000 0.00010000000000 
2
0.99990000000000 0.00010000000000 
2
0.99990000000000 0.00010000000000 
2
0.99998000000000 0.00002000000000 
2
0.99999000000000 0.00001000000000 
2
0.99990000000000 0.00010000000000 
2
0.99995000000000 0.00005000000000 
2
0.99800000000000 0.00200000000000 
2
0.99999000000000 0.00001000000000 
2
0.99974000000000 0.00026000000000 
2
0.99999800000000 0.00000200000000 
2
0.99989000000000 0.00011000000000 
2
0.99995000000000 0.00005000000000 
2
0.99990000000000 0.00010000000000 
2
0.99996000000000 0.00004000000000 
2
0.99981000000000 0.00019000000000 
2
0.99990000000000 0.00010000000000 
2
0.99998000000000 0.00002000000000 
2
0.99990000000000 0.00010000000000 
2
0.99990000000000 0.00010000000000 
2
0.99992000000000 0.00008000000000 
2
0.99990000000000 0.00010000000000 
2
0.99999000000000 0.00001000000000 
2
0.99960000000000 0.00040000000000 
2
0.99996000000000 0.00004000000000 
2
0.99995000000000 0.00005000000000 
2
0.99990000000000 0.00010000000000 
2
0.99950000000000 0.00050000000000 
2
0.99999000000000 0.00001000000000 
2
0.99997300000000 0.00002700000000 
2
0.99995000000000 0.00005000000000 
2
0.99999000000000 0.00001000000000 
2
0.99990000000000 0.00010000000000 
2
0.99990000000000 0.00010000000000 
2
0.99999000000000 0.00001000000000 
2
0.99910000000000 0.00090000000000 
2
0.99990000000000 0.00010000000000 
2
0.99950000000000 0.00050000000000 
2
0.99990000000000 0.00010000000000 
2
0.99995000000000 0.00005000000000 
2
0.99990000000000 0.00010000000000 
2
0.99985000000000 0.00015000000000 
2
0.99960000000000 0.00040000000000 
2
0.99995000000000 0.00005000000000 
2
0.99998000000000 0.00002000000000 
2
0.99999000000000 0.00001000000000 
2
0.99990000000000 0.00010000000000 
2
0.99990000000000 0.00010000000000 
2
0.99980000000000 0.00020000000000 
2
0.99950000000000 0.00050000000000 
2
0.99999000000000 0.00001000000000 
2
0.99950000000000 0.00050000000000 
2
0.99980000000000 0.00020000000000 
2
0.99910000000000 0.00090000000000 
2
0.99995000000000 0.00005000000000 
2
0.99980000000000 0.00020000000000 
2
0.99980000000000 0.00020000000000 
2
0.99980000000000 0.00020000000000 
2
0.99992000000000 0.00008000000000 
2
0.99940000000000 0.00060000000000 
2
0.99998000000000 0.00002000000000 
2
0.99999000000000 0.00001000000000 
2
0.99990000000000 0.00010000000000 
2
0.99990000000000 0.00010000000000 
2
0.99950000000000 0.00050000000000 
2
0.99998000000000 0.00002000000000 
2
0.99990000000000 0.00010000000000 
2
0.99998000000000 0.00002000000000 
2
0.99970000000000 0.00030000000000 
2
0.99984000000000 0.00016000000000 
2
0.99960000000000 0.00040000000000 
2
0.99989000000000 0.00011000000000 
2
0.99993000000000 0.00007000000000 
2
0.99997000000000 0.00003000000000 
2
0.99990000000000 0.00010000000000 
2
0.99900000000000 0.00100000000000 
2
0.99800000000000 0.00200000000000 
2
0.99990000000000 0.00010000000000 
2
0.99990000000000 0.00010000000000 
2
0.99990000000000 0.00010000000000 
2
0.99998000000000 0.00002000000000 
2
0.99995000000000 0.00005000000000 
2
0.99950000000000 0.00050000000000 
2
0.99990000000000 0.00010000000000 
2
0.99820000000000 0.00180000000000 
2
0.99990000000000 0.00010000000000 
2
0.99996000000000 0.00004000000000 
2
0.99985000000000 0.00015000000000 
2
0.99990000000000 0.00010000000000 
2
0.99990000000000 0.00010000000000 
2
0.99990000000000 0.00010000000000 
2
0.99997709000000 0.00002291000000 
2
0.99960000000000 0.00040000000000 
2
0.99800000000000 0.00200000000000 
2
0.99989000000000 0.00011000000000 
2
0.99995000000000 0.00005000000000 
2
0.99990000000000 0.00010000000000 
2
0.99800000000000 0.00200000000000 
2
0.99975000000000 0.00025000000000 
2
0.99960000000000 0.00040000000000 
2
0.99995000000000 0.00005000000000 
2
0.99850000000000 0.00150000000000 
2
0.99987000000000 0.00013000000000 
2
0.99950000000000 0.00050000000000 
2
0.99995000000000 0.00005000000000 
2
0.99995000000000 0.00005000000000 
2
0.99999000000000 0.00001000000000 
2
0.99990000000000 0.00010000000000 
2
0.99998000000000 0.00002000000000 
2
0.99990000000000 0.00010000000000 
2
0.99999988000000 0.00000012000000 
2
0.99995000000000 0.00005000000000 
2
0.99990000000000 0.00010000000000 
2
0.99998000000000 0.00002000000000 
2
0.99999000000000 0.00001000000000 
2
0.99990000000000 0.00010000000000 
2
0.99990000000000 0.00010000000000 
2
0.99999600000000 0.00000400000000 
2
0.99999984000000 0.00000016000000 
2
0.99990000000000 0.00010000000000 
2
0.99990000000000 0.00010000000000 
2
0.99990000000000 0.00010000000000 
2
0.99990668000000 0.00009332000000 
2
0.99990000000000 0.00010000000000 
2
0.99940000000000 0.00060000000000 
2
0.99990000000000 0.00010000000000 
2
0.99996880000000 0.00003120000000 
2
0.99995000000000 0.00005000000000 
2
0.99999200000000 0.00000800000000 
2
0.99990000000000 0.00010000000000 
2
0.99975000000000 0.00025000000000 
2
0.99990000000000 0.00010000000000 
2
0.99882000000000 0.00118000000000 
2
0.99999000000000 0.00001000000000 
2
0.99990000000000 0.00010000000000 
2
0.99960000000000 0.00040000000000 
2
0.99999000000000 0.00001000000000 
2
0.99980000000000 0.00020000000000 
2
0.99990000000000 0.00010000000000 
2
0.99990000000000 0.00010000000000 
2
0.99990000000000 0.00010000000000 
2
0.99900000000000 0.00100000000000 
2
0.99950000000000 0.00050000000000 
2
0.99991000000000 0.00009000000000 
2
0.99991000000000 0.00009000000000 
2
0.99990000000000 0.00010000000000 
2
0.99990000000000 0.00010000000000 
2
0.99995000000000 0.00005000000000 
2
0.99997000000000 0.00003000000000 
2
0.99850000000000 0.00150000000000 
2
0.99995000000000 0.00005000000000 
2
0.99994000000000 0.00006000000000 
2
0.99990000000000 0.00010000000000 
2
0.99980000000000 0.00020000000000 
2
0.99990000000000 0.00010000000000 
2
0.99990000000000 0.00010000000000 
2
0.99997000000000 0.00003000000000 
2
0.99997000000000 0.00003000000000 
2
0.99990000000000 0.00010000000000 
2
0.99989000000000 0.00011000000000 
2
0.99950000000000 0.00050000000000 
2
0.99990000000000 0.00010000000000 
2
0.99990000000000 0.00010000000000 
2
0.99990000000000 0.00010000000000 
2
0.99997000000000 0.00003000000000 
2
0.99990000000000 0.00010000000000 
2
0.99999000000000 0.00001000000000 
2
0.99990000000000 0.00010000000000 
2
0.99996000000000 0.00004000000000 
2
0.99990000000000 0.00010000000000 
2
0.99980000000000 0.00020000000000 
2
0.99997000000000 0.00003000000000 
2
0.99998000000000 0.00002000000000 
2
0.99990000000000 0.00010000000000 
2
0.99993000000000 0.00007000000000 
